0,76,31,35,86,71,55,42,58,96,99
76,0,46,61,90,39,110,103,80,69,103
31,46,0,23,73,43,69,59,51,73,87
35,61,23,0,53,40,49,43,28,61,66
86,90,73,53,0,50,62,69,29,36,14
71,39,43,40,50,0,84,81,47,32,63
55,110,69,49,62,84,0,14,40,92,69
42,103,59,43,69,81,14,0,42,94,78
58,80,51,28,29,47,40,42,0,52,41
96,69,73,61,36,32,92,94,52,0,43
99,103,87,66,14,63,69,78,41,43,0